1703.0 21634.0 
1728.0 21601.0 
1644.0 21742.0 
1789.0 21460.0 
1658.0 21737.0 
1632.0 21764.0 
1658.0 21737.0 
1784.0 21502.0 
1785.0 21469.0 
1687.0 21661.0 
1632.0 21764.0 
1658.0 21737.0 
1632.0 21764.0 
1785.0 21469.0 
1632.0 21764.0 
1673.0 21724.0 
1796.0 21427.0 
1728.0 21601.0 
1728.0 21601.0 
1644.0 21742.0 
1772.0 21599.0 
1658.0 21737.0 
1632.0 21764.0 
